<?xml version="1.0" encoding="UTF-8"?><osil xmlns="os.optimizationservices.org" xmlns:xsi="http://www.w3.org/2001/XMLSchema-instance" xsi:schemaLocation="os.optimizationservices.org http://www.optimizationservices.org/schemas/2.0/OSiL.xsd"><instanceHeader><name>ex8_1_2</name></instanceHeader><instanceData><variables numberOfVariables="1"><var name="x1" ub="6.28318"/></variables><objectives><obj maxOrMin="min" name="defObj_objvar" numberOfObjCoef="0"/></objectives><nonlinearExpressions numberOfNonlinearExpressions="1"><nl idx="-1"><sum><divide><number value="5.886e5"/><power><sum><product><cos><sum><number value="-2.09439333333333"/><variable idx="0"/></sum></cos><number value="-4.21478541710781"/></product><number value="10.8095222429746"/></sum><number value="6"/></power></divide><negate><divide><number value="1079.1"/><power><sum><product><cos><sum><number value="-2.09439333333333"/><variable idx="0"/></sum></cos><number value="-4.21478541710781"/></product><number value="10.8095222429746"/></sum><number value="3"/></power></divide></negate><divide><number value="6.008e5"/><power><sum><product><cos><variable idx="0"/></cos><number value="-4.21478541710781"/></product><number value="10.8095222429746"/></sum><number value="6"/></power></divide><negate><divide><number value="1071.5"/><power><sum><product><cos><variable idx="0"/></cos><number value="-4.21478541710781"/></product><number value="10.8095222429746"/></sum><number value="3"/></power></divide></negate><divide><number value="4.813e5"/><power><sum><product><cos><sum><number value="2.09439333333333"/><variable idx="0"/></sum></cos><number value="-4.21478541710781"/></product><number value="10.8095222429746"/></sum><number value="6"/></power></divide><negate><divide><number value="1064.6"/><power><sum><product><cos><sum><number value="2.09439333333333"/><variable idx="0"/></sum></cos><number value="-4.21478541710781"/></product><number value="10.8095222429746"/></sum><number value="3"/></power></divide></negate></sum></nl></nonlinearExpressions></instanceData></osil>